Traveling Salesman Problem/TSP_generados/Aleatorio1620392444_16.tsp
NAME: Aleatorio1620392444_16.tsp
COMMENT: Randomly generated scenario
TYPE: TSP
DIMENSION: 16
EDGE_WEIGHT_TYPE: ATT
NODE_COORD_SECTION
1 5.57 28.78
2 46.42 35.67
3 40.81 34.67
4 44.69 41.04
5 23.89 13.0
6 36.89 0.33
7 47.87 6.38
8 25.81 22.53
9 16.42 9.51
10 4.44 7.76
11 22.43 15.12
12 25.19 38.64
13 45.27 11.23
14 19.95 30.93
15 18.92 25.49
16 19.03 24.57
