Traveling Salesman Problem/TSP_generados/Aleatorio1620392444_16.opt.tour
NAME: Aleatorio1620392444_16.opt.tour
COMMENT: Optimal solution for Aleatorio1620392444_16 (175.14986489487546)
TYPE: TOUR
DIMENSION: 16
TOUR_SECTION
1 10 9 11 5 6 7 13 2 4 3 12 14 8 16 15
-1
EOF
